# Solution for model FSG
# Objective value = 1.1464609503212650e+03
x_0_1 0
x_0_2 0
x_0_3 1
x_0_4 1
x_0_5 0
x_0_6 0
x_0_7 0
x_1_2 0
x_1_3 0
x_1_4 0
x_1_5 0
x_1_6 1
x_1_7 0
x_2_1 0
x_2_3 0
x_2_4 0
x_2_5 0
x_2_6 0
x_2_7 1
x_3_1 1
x_3_2 0
x_3_4 0
x_3_5 0
x_3_6 0
x_3_7 0
x_4_1 0
x_4_2 0
x_4_3 0
x_4_5 1
x_4_6 0
x_4_7 0
x_5_1 0
x_5_2 1
x_5_3 0
x_5_4 0
x_5_6 0
x_5_7 0
U_1_1 0
U_1_2 0
U_1_3 1
U_2_1 0
U_2_2 0
U_2_3 1
U_3_1 0
U_3_2 0
U_3_3 1
U_4_1 1
U_4_2 0
U_4_3 0
U_5_1 1
U_5_2 0
U_5_3 0
U_6_1 0
U_6_2 0
U_6_3 1
U_7_1 0
U_7_2 0
U_7_3 1
TBar_0 0
TBar_1 3.4351241202231840e+01
TBar_2 3.3184493680320308e+01
TBar_3 30
TBar_4 5.4277988172002125e+00
TBar_5 1.1815506319679692e+01
TBar_6 4.3712656693491695e+01
TBar_7 4.4089630084785867e+01
y_0_1_1 0
y_0_1_2 0
y_0_1_3 0
y_0_1_4 0
y_0_1_5 0
y_0_2_1 0
y_0_2_2 0
y_0_2_3 0
y_0_2_4 0
y_0_2_5 0
y_0_3_1 0
y_0_3_2 0
y_0_3_3 0
y_0_3_4 0
y_0_3_5 0
y_0_4_1 0
y_0_4_2 0
y_0_4_3 0
y_0_4_4 0
y_0_4_5 0
y_0_5_1 0
y_0_5_2 0
y_0_5_3 0
y_0_5_4 0
y_0_5_5 0
y_0_6_1 0
y_0_6_2 0
y_0_6_3 0
y_0_6_4 0
y_0_6_5 0
y_0_7_1 0
y_0_7_2 0
y_0_7_3 0
y_0_7_4 0
y_0_7_5 0
y_1_2_1 0
y_1_2_2 0
y_1_2_3 0
y_1_2_4 0
y_1_2_5 0
y_1_3_1 0
y_1_3_2 0
y_1_3_3 0
y_1_3_4 0
y_1_3_5 0
y_1_4_1 0
y_1_4_2 0
y_1_4_3 0
y_1_4_4 0
y_1_4_5 0
y_1_5_1 0
y_1_5_2 0
y_1_5_3 0
y_1_5_4 0
y_1_5_5 0
y_1_6_1 0
y_1_6_2 0
y_1_6_3 0
y_1_6_4 0
y_1_6_5 0
y_1_7_1 0
y_1_7_2 0
y_1_7_3 0
y_1_7_4 0
y_1_7_5 0
y_2_1_1 0
y_2_1_2 0
y_2_1_3 0
y_2_1_4 0
y_2_1_5 0
y_2_3_1 0
y_2_3_2 0
y_2_3_3 0
y_2_3_4 0
y_2_3_5 0
y_2_4_1 0
y_2_4_2 0
y_2_4_3 0
y_2_4_4 0
y_2_4_5 0
y_2_5_1 0
y_2_5_2 0
y_2_5_3 0
y_2_5_4 0
y_2_5_5 0
y_2_6_1 0
y_2_6_2 0
y_2_6_3 0
y_2_6_4 0
y_2_6_5 0
y_2_7_1 1
y_2_7_2 1
y_2_7_3 1
y_2_7_4 1
y_2_7_5 1
y_3_1_1 0
y_3_1_2 0
y_3_1_3 0
y_3_1_4 0
y_3_1_5 0
y_3_2_1 0
y_3_2_2 0
y_3_2_3 0
y_3_2_4 0
y_3_2_5 0
y_3_4_1 0
y_3_4_2 0
y_3_4_3 0
y_3_4_4 0
y_3_4_5 0
y_3_5_1 0
y_3_5_2 0
y_3_5_3 0
y_3_5_4 0
y_3_5_5 0
y_3_6_1 0
y_3_6_2 0
y_3_6_3 0
y_3_6_4 0
y_3_6_5 0
y_3_7_1 0
y_3_7_2 0
y_3_7_3 0
y_3_7_4 0
y_3_7_5 0
y_4_1_1 0
y_4_1_2 0
y_4_1_3 0
y_4_1_4 0
y_4_1_5 0
y_4_2_1 0
y_4_2_2 0
y_4_2_3 0
y_4_2_4 0
y_4_2_5 0
y_4_3_1 0
y_4_3_2 0
y_4_3_3 0
y_4_3_4 0
y_4_3_5 0
y_4_5_1 0
y_4_5_2 0
y_4_5_3 0
y_4_5_4 0
y_4_5_5 0
y_4_6_1 0
y_4_6_2 0
y_4_6_3 0
y_4_6_4 0
y_4_6_5 0
y_4_7_1 0
y_4_7_2 0
y_4_7_3 0
y_4_7_4 0
y_4_7_5 0
y_5_1_1 0
y_5_1_2 0
y_5_1_3 0
y_5_1_4 0
y_5_1_5 0
y_5_2_1 0
y_5_2_2 0
y_5_2_3 0
y_5_2_4 0
y_5_2_5 0
y_5_3_1 0
y_5_3_2 0
y_5_3_3 0
y_5_3_4 0
y_5_3_5 0
y_5_4_1 0
y_5_4_2 0
y_5_4_3 0
y_5_4_4 0
y_5_4_5 0
y_5_6_1 0
y_5_6_2 0
y_5_6_3 0
y_5_6_4 0
y_5_6_5 0
y_5_7_1 0
y_5_7_2 0
y_5_7_3 0
y_5_7_4 0
y_5_7_5 0
Q_0_1 0
Q_0_2 0
Q_0_3 0
Q_0_4 0
Q_0_5 0
Q_1_1 167.72
Q_1_2 1.6864499999999998e+02
Q_1_3 175.91
Q_1_4 167.005
Q_1_5 178.63
Q_2_1 2.5686000000000058e+02
Q_2_2 2.5926500000000055e+02
Q_2_3 2.6259500000000060e+02
Q_2_4 2.7309000000000054e+02
Q_2_5 2.6711000000000058e+02
Q_3_1 9.9544999999999362e+01
Q_3_2 9.2514999999999347e+01
Q_3_3 1.0006999999999934e+02
Q_3_4 9.0094999999999345e+01
Q_3_5 1.0277999999999935e+02
Q_4_1 84.08
Q_4_2 75.84
Q_4_3 80.26
Q_4_4 81.82
Q_4_5 80.22
Q_5_1 1.4545999999999978e+02
Q_5_2 137.2
Q_5_3 1.4587999999999977e+02
Q_5_4 1.4787999999999977e+02
Q_5_5 1.4447999999999979e+02
Q_6_1 167.72
Q_6_2 1.6864499999999998e+02
Q_6_3 175.91
Q_6_4 167.005
Q_6_5 178.63
Q_7_1 2.5686000000000058e+02
Q_7_2 2.5926500000000055e+02
Q_7_3 2.6259500000000060e+02
Q_7_4 2.7309000000000054e+02
Q_7_5 2.6711000000000058e+02
R_6_1 0
R_6_2 0
R_6_3 0
R_6_4 0
R_6_5 0
R_7_1 5.6860000000000582e+01
R_7_2 5.9265000000000555e+01
R_7_3 6.2595000000000596e+01
R_7_4 7.3090000000000543e+01
R_7_5 6.7110000000000582e+01
L_1_1 0
L_1_2 0
L_1_3 0
L_1_4 0
L_1_5 0
L_2_1 0
L_2_2 0
L_2_3 0
L_2_4 0
L_2_5 0
L_3_1 0
L_3_2 0
L_3_3 0
L_3_4 0
L_3_5 0
L_4_1 2.4435000000000002e+01
L_4_2 21.08
L_4_3 26.385
L_4_4 21.925
L_4_5 20.27
L_5_1 1.5840000000000002e+01
L_5_2 25.985
L_5_3 25.86
L_5_4 2.5799999999999997e+01
L_5_5 26.155
rho_1_1 0
rho_1_2 0
rho_1_3 0
rho_1_4 0
rho_1_5 0
rho_2_1 1
rho_2_2 1
rho_2_3 1
rho_2_4 1
rho_2_5 1
rho_3_1 0
rho_3_2 0
rho_3_3 0
rho_3_4 0
rho_3_5 0
rho_4_1 0
rho_4_2 0
rho_4_3 0
rho_4_4 0
rho_4_5 0
rho_5_1 0
rho_5_2 0
rho_5_3 0
rho_5_4 0
rho_5_5 0
lambd_1_1 0
lambd_1_2 0
lambd_1_3 0
lambd_1_4 0
lambd_1_5 0
lambd_2_1 0
lambd_2_2 0
lambd_2_3 0
lambd_2_4 0
lambd_2_5 0
lambd_3_1 0
lambd_3_2 0
lambd_3_3 0
lambd_3_4 0
lambd_3_5 0
lambd_4_1 0
lambd_4_2 0
lambd_4_3 0
lambd_4_4 0
lambd_4_5 0
lambd_5_1 0
lambd_5_2 0
lambd_5_3 0
lambd_5_4 0
lambd_5_5 0
alpha_1_1 0
alpha_1_2 0
alpha_1_3 0
alpha_1_4 0
alpha_1_5 0
alpha_2_1 1
alpha_2_2 1
alpha_2_3 1
alpha_2_4 1
alpha_2_5 1
alpha_3_1 0
alpha_3_2 0
alpha_3_3 0
alpha_3_4 0
alpha_3_5 0
alpha_4_1 0
alpha_4_2 0
alpha_4_3 0
alpha_4_4 0
alpha_4_5 0
alpha_5_1 0
alpha_5_2 0
alpha_5_3 0
alpha_5_4 0
alpha_5_5 0
